coords = array2d(1..31, 1..2, [454, 769, 429, 250, 401, 53, 421, 167, 89, 687,
    95, 754, 377, 951, 901, 291, 289, 386, 168, 549, 274, 98, 347,
    616, 514, 933, 802, 191, 874, 13, 868, 842, 711, 103, 955, 336,
    43, 386, 576, 269, 532, 268, 428, 559, 609, 821, 166, 400, 858,
    214, 66, 824, 775, 621, 447, 979, 28, 648, 600, 522, 555, 503]);

n = 31;

